Minimize
	value: tt

Subject to
tt + 1000 s_1_1 > 0.0
tt - t_1_1 - 1000.000000 s_1_1  + 0.000000 s_1_7  > -987.831522
tt + 1000 s_2_1 > 0.0
tt - t_2_1 - 1000.000000 s_2_1  + 0.000000 s_2_7  > -969.810150
tt + 1000 s_1_2 > 0.0
tt - t_1_2 - 1000.000000 s_1_2  + 0.000000 s_1_7  > -989.157022
tt + 1000 s_2_2 > 0.0
tt - t_2_2 - 1000.000000 s_2_2  + 0.000000 s_2_7  > -972.237900
tt + 1000 s_1_3 > 0.0
tt - t_1_3 - 1000.000000 s_1_3  + 0.000000 s_1_7  > -990.621867
tt + 1000 s_2_3 > 0.0
tt - t_2_3 - 1000.000000 s_2_3  + 0.000000 s_2_7  > -977.766600
tt + 1000 s_1_4 > 0.0
tt - t_1_4 - 1000.000000 s_1_4  + 0.000000 s_1_1  + 0.000000 s_1_2  > -998.093200
tt + 1000 s_2_4 > 0.0
tt - t_2_4 - 1000.000000 s_2_4  + 0.000000 s_2_1  + 0.000000 s_2_2  > -995.997042
tt + 1000 s_1_5 > 0.0
tt - t_1_5 - 1000.000000 s_1_5  + 0.000000 s_1_1  + 0.000000 s_1_7  > -994.481311
tt + 1000 s_2_5 > 0.0
tt - t_2_5 - 1000.000000 s_2_5  + 0.000000 s_2_1  + 0.000000 s_2_7  > -988.390439
tt + 1000 s_1_6 > 0.0
tt - t_1_6 - 1000.000000 s_1_6  + 0.000000 s_1_5  + 0.000000 s_1_2  + 0.000000 s_1_3  + 0.000000 s_1_4  > -995.097500
tt + 1000 s_2_6 > 0.0
tt - t_2_6 - 1000.000000 s_2_6  + 0.000000 s_2_5  + 0.000000 s_2_2  + 0.000000 s_2_3  + 0.000000 s_2_4  > -996.644900
tt + 1000 s_1_7 > 0.0
tt - t_1_7 - 1000.000000 s_1_7  > -991.565556
tt + 1000 s_2_7 > 0.0
tt - t_2_7 - 1000.000000 s_2_7  > -985.328426
s_1_1 + s_2_1 = 1
s_1_2 + s_2_2 = 1
s_1_3 + s_2_3 = 1
s_1_4 + s_2_4 = 1
s_1_5 + s_2_5 = 1
s_1_6 + s_2_6 = 1
s_1_7 + s_2_7 = 1
s_1_1 + s_1_2 + 1000 r_1_1_2 >= 2
- s_1_1 - s_1_2 - 1000 r_1_1_2 >= -1001
t_1_1 - t_1_2 - 1000.000000 u_1_1_2 - 0.000000 s_1_2  + 0.000000 s_1_7  + 2000.000000 r_1_1_2 > -989.157022
s_2_1 + s_2_2 + 1000 r_2_1_2 >= 2
- s_2_1 - s_2_2 - 1000 r_2_1_2 >= -1001
t_2_1 - t_2_2 - 1000.000000 u_2_1_2 - 0.000000 s_2_2  + 0.000000 s_2_7  + 2000.000000 r_2_1_2 > -972.237900
s_1_1 + s_1_3 + 1000 r_1_1_3 >= 2
- s_1_1 - s_1_3 - 1000 r_1_1_3 >= -1001
t_1_1 - t_1_3 - 1000.000000 u_1_1_3 - 0.000000 s_1_3  + 0.000000 s_1_7  + 2000.000000 r_1_1_3 > -990.621867
s_2_1 + s_2_3 + 1000 r_2_1_3 >= 2
- s_2_1 - s_2_3 - 1000 r_2_1_3 >= -1001
t_2_1 - t_2_3 - 1000.000000 u_2_1_3 - 0.000000 s_2_3  + 0.000000 s_2_7  + 2000.000000 r_2_1_3 > -977.766600
t_1_4 - t_1_1 - 1000.000000 s_1_1  + 0.000000 s_1_7  > -987.831522
t_1_4 - t_2_1 - 1000.000000 s_2_1  + 0.000000 s_2_7  > -969.810150
t_2_4 - t_1_1 - 1000.000000 s_1_1  + 0.000000 s_1_7  > -987.831522
t_2_4 - t_2_1 - 1000.000000 s_2_1  + 0.000000 s_2_7  > -969.810150
t_1_5 - t_1_1 - 1000.000000 s_1_1  + 0.000000 s_1_7  > -987.831522
t_1_5 - t_2_1 - 1000.000000 s_2_1  + 0.000000 s_2_7  > -969.810150
t_2_5 - t_1_1 - 1000.000000 s_1_1  + 0.000000 s_1_7  > -987.831522
t_2_5 - t_2_1 - 1000.000000 s_2_1  + 0.000000 s_2_7  > -969.810150
t_1_1 - t_1_7 - 1000.000000 s_1_7  > -991.565556
t_1_1 - t_2_7 - 1000.000000 s_2_7  > -985.328426
t_2_1 - t_1_7 - 1000.000000 s_1_7  > -991.565556
t_2_1 - t_2_7 - 1000.000000 s_2_7  > -985.328426
s_1_2 + s_1_1 + 1000 r_1_1_2 >= 2
- s_1_2 - s_1_1 - 1000 r_1_1_2 >= -1001
t_1_2 - t_1_1 + 1000.000000 u_1_1_2 - 0.000000 s_1_1  + 0.000000 s_1_7  + 2000.000000 r_1_1_2 > 12.168478
s_2_2 + s_2_1 + 1000 r_2_1_2 >= 2
- s_2_2 - s_2_1 - 1000 r_2_1_2 >= -1001
t_2_2 - t_2_1 + 1000.000000 u_2_1_2 - 0.000000 s_2_1  + 0.000000 s_2_7  + 2000.000000 r_2_1_2 > 30.189850
s_1_2 + s_1_3 + 1000 r_1_2_3 >= 2
- s_1_2 - s_1_3 - 1000 r_1_2_3 >= -1001
t_1_2 - t_1_3 - 1000.000000 u_1_2_3 - 0.000000 s_1_3  + 0.000000 s_1_7  + 2000.000000 r_1_2_3 > -990.621867
s_2_2 + s_2_3 + 1000 r_2_2_3 >= 2
- s_2_2 - s_2_3 - 1000 r_2_2_3 >= -1001
t_2_2 - t_2_3 - 1000.000000 u_2_2_3 - 0.000000 s_2_3  + 0.000000 s_2_7  + 2000.000000 r_2_2_3 > -977.766600
t_1_4 - t_1_2 - 1000.000000 s_1_2  + 0.000000 s_1_7  > -989.157022
t_1_4 - t_2_2 - 1000.000000 s_2_2  + 0.000000 s_2_7  > -972.237900
t_2_4 - t_1_2 - 1000.000000 s_1_2  + 0.000000 s_1_7  > -989.157022
t_2_4 - t_2_2 - 1000.000000 s_2_2  + 0.000000 s_2_7  > -972.237900
s_1_2 + s_1_5 + 1000 r_1_2_5 >= 2
- s_1_2 - s_1_5 - 1000 r_1_2_5 >= -1001
t_1_2 - t_1_5 - 1000.000000 u_1_2_5 - 0.000000 s_1_5  + 0.000000 s_1_1  + 0.000000 s_1_7  + 2000.000000 r_1_2_5 > -994.481311
s_2_2 + s_2_5 + 1000 r_2_2_5 >= 2
- s_2_2 - s_2_5 - 1000 r_2_2_5 >= -1001
t_2_2 - t_2_5 - 1000.000000 u_2_2_5 - 0.000000 s_2_5  + 0.000000 s_2_1  + 0.000000 s_2_7  + 2000.000000 r_2_2_5 > -988.390439
t_1_6 - t_1_2 - 1000.000000 s_1_2  + 0.000000 s_1_7  > -989.157022
t_1_6 - t_2_2 - 1000.000000 s_2_2  + 0.000000 s_2_7  > -972.237900
t_2_6 - t_1_2 - 1000.000000 s_1_2  + 0.000000 s_1_7  > -989.157022
t_2_6 - t_2_2 - 1000.000000 s_2_2  + 0.000000 s_2_7  > -972.237900
t_1_2 - t_1_7 - 1000.000000 s_1_7  > -991.565556
t_1_2 - t_2_7 - 1000.000000 s_2_7  > -985.328426
t_2_2 - t_1_7 - 1000.000000 s_1_7  > -991.565556
t_2_2 - t_2_7 - 1000.000000 s_2_7  > -985.328426
s_1_3 + s_1_1 + 1000 r_1_1_3 >= 2
- s_1_3 - s_1_1 - 1000 r_1_1_3 >= -1001
t_1_3 - t_1_1 + 1000.000000 u_1_1_3 - 0.000000 s_1_1  + 0.000000 s_1_7  + 2000.000000 r_1_1_3 > 12.168478
s_2_3 + s_2_1 + 1000 r_2_1_3 >= 2
- s_2_3 - s_2_1 - 1000 r_2_1_3 >= -1001
t_2_3 - t_2_1 + 1000.000000 u_2_1_3 - 0.000000 s_2_1  + 0.000000 s_2_7  + 2000.000000 r_2_1_3 > 30.189850
s_1_3 + s_1_2 + 1000 r_1_2_3 >= 2
- s_1_3 - s_1_2 - 1000 r_1_2_3 >= -1001
t_1_3 - t_1_2 + 1000.000000 u_1_2_3 - 0.000000 s_1_2  + 0.000000 s_1_7  + 2000.000000 r_1_2_3 > 10.842978
s_2_3 + s_2_2 + 1000 r_2_2_3 >= 2
- s_2_3 - s_2_2 - 1000 r_2_2_3 >= -1001
t_2_3 - t_2_2 + 1000.000000 u_2_2_3 - 0.000000 s_2_2  + 0.000000 s_2_7  + 2000.000000 r_2_2_3 > 27.762100
s_1_3 + s_1_4 + 1000 r_1_3_4 >= 2
- s_1_3 - s_1_4 - 1000 r_1_3_4 >= -1001
t_1_3 - t_1_4 - 1000.000000 u_1_3_4 - 0.000000 s_1_4  + 0.000000 s_1_1  + 0.000000 s_1_2  + 2000.000000 r_1_3_4 > -998.093200
s_2_3 + s_2_4 + 1000 r_2_3_4 >= 2
- s_2_3 - s_2_4 - 1000 r_2_3_4 >= -1001
t_2_3 - t_2_4 - 1000.000000 u_2_3_4 - 0.000000 s_2_4  + 0.000000 s_2_1  + 0.000000 s_2_2  + 2000.000000 r_2_3_4 > -995.997042
s_1_3 + s_1_5 + 1000 r_1_3_5 >= 2
- s_1_3 - s_1_5 - 1000 r_1_3_5 >= -1001
t_1_3 - t_1_5 - 1000.000000 u_1_3_5 - 0.000000 s_1_5  + 0.000000 s_1_1  + 0.000000 s_1_7  + 2000.000000 r_1_3_5 > -994.481311
s_2_3 + s_2_5 + 1000 r_2_3_5 >= 2
- s_2_3 - s_2_5 - 1000 r_2_3_5 >= -1001
t_2_3 - t_2_5 - 1000.000000 u_2_3_5 - 0.000000 s_2_5  + 0.000000 s_2_1  + 0.000000 s_2_7  + 2000.000000 r_2_3_5 > -988.390439
t_1_6 - t_1_3 - 1000.000000 s_1_3  + 0.000000 s_1_7  > -990.621867
t_1_6 - t_2_3 - 1000.000000 s_2_3  + 0.000000 s_2_7  > -977.766600
t_2_6 - t_1_3 - 1000.000000 s_1_3  + 0.000000 s_1_7  > -990.621867
t_2_6 - t_2_3 - 1000.000000 s_2_3  + 0.000000 s_2_7  > -977.766600
t_1_3 - t_1_7 - 1000.000000 s_1_7  > -991.565556
t_1_3 - t_2_7 - 1000.000000 s_2_7  > -985.328426
t_2_3 - t_1_7 - 1000.000000 s_1_7  > -991.565556
t_2_3 - t_2_7 - 1000.000000 s_2_7  > -985.328426
s_1_4 + s_1_3 + 1000 r_1_3_4 >= 2
- s_1_4 - s_1_3 - 1000 r_1_3_4 >= -1001
t_1_4 - t_1_3 + 1000.000000 u_1_3_4 - 0.000000 s_1_3  + 0.000000 s_1_7  + 2000.000000 r_1_3_4 > 9.378133
s_2_4 + s_2_3 + 1000 r_2_3_4 >= 2
- s_2_4 - s_2_3 - 1000 r_2_3_4 >= -1001
t_2_4 - t_2_3 + 1000.000000 u_2_3_4 - 0.000000 s_2_3  + 0.000000 s_2_7  + 2000.000000 r_2_3_4 > 22.233400
s_1_4 + s_1_5 + 1000 r_1_4_5 >= 2
- s_1_4 - s_1_5 - 1000 r_1_4_5 >= -1001
t_1_4 - t_1_5 - 1000.000000 u_1_4_5 - 0.000000 s_1_5  + 0.000000 s_1_1  + 0.000000 s_1_7  + 2000.000000 r_1_4_5 > -994.481311
s_2_4 + s_2_5 + 1000 r_2_4_5 >= 2
- s_2_4 - s_2_5 - 1000 r_2_4_5 >= -1001
t_2_4 - t_2_5 - 1000.000000 u_2_4_5 - 0.000000 s_2_5  + 0.000000 s_2_1  + 0.000000 s_2_7  + 2000.000000 r_2_4_5 > -988.390439
t_1_6 - t_1_4 - 1000.000000 s_1_4  + 0.000000 s_1_1  + 0.000000 s_1_2  > -998.093200
t_1_6 - t_2_4 - 1000.000000 s_2_4  + 0.000000 s_2_1  + 0.000000 s_2_2  > -995.997042
t_2_6 - t_1_4 - 1000.000000 s_1_4  + 0.000000 s_1_1  + 0.000000 s_1_2  > -998.093200
t_2_6 - t_2_4 - 1000.000000 s_2_4  + 0.000000 s_2_1  + 0.000000 s_2_2  > -995.997042
s_1_5 + s_1_2 + 1000 r_1_2_5 >= 2
- s_1_5 - s_1_2 - 1000 r_1_2_5 >= -1001
t_1_5 - t_1_2 + 1000.000000 u_1_2_5 - 0.000000 s_1_2  + 0.000000 s_1_7  + 2000.000000 r_1_2_5 > 10.842978
s_2_5 + s_2_2 + 1000 r_2_2_5 >= 2
- s_2_5 - s_2_2 - 1000 r_2_2_5 >= -1001
t_2_5 - t_2_2 + 1000.000000 u_2_2_5 - 0.000000 s_2_2  + 0.000000 s_2_7  + 2000.000000 r_2_2_5 > 27.762100
s_1_5 + s_1_3 + 1000 r_1_3_5 >= 2
- s_1_5 - s_1_3 - 1000 r_1_3_5 >= -1001
t_1_5 - t_1_3 + 1000.000000 u_1_3_5 - 0.000000 s_1_3  + 0.000000 s_1_7  + 2000.000000 r_1_3_5 > 9.378133
s_2_5 + s_2_3 + 1000 r_2_3_5 >= 2
- s_2_5 - s_2_3 - 1000 r_2_3_5 >= -1001
t_2_5 - t_2_3 + 1000.000000 u_2_3_5 - 0.000000 s_2_3  + 0.000000 s_2_7  + 2000.000000 r_2_3_5 > 22.233400
s_1_5 + s_1_4 + 1000 r_1_4_5 >= 2
- s_1_5 - s_1_4 - 1000 r_1_4_5 >= -1001
t_1_5 - t_1_4 + 1000.000000 u_1_4_5 - 0.000000 s_1_4  + 0.000000 s_1_1  + 0.000000 s_1_2  + 2000.000000 r_1_4_5 > 1.906800
s_2_5 + s_2_4 + 1000 r_2_4_5 >= 2
- s_2_5 - s_2_4 - 1000 r_2_4_5 >= -1001
t_2_5 - t_2_4 + 1000.000000 u_2_4_5 - 0.000000 s_2_4  + 0.000000 s_2_1  + 0.000000 s_2_2  + 2000.000000 r_2_4_5 > 4.002958
t_1_6 - t_1_5 - 1000.000000 s_1_5  + 0.000000 s_1_1  + 0.000000 s_1_7  > -994.481311
t_1_6 - t_2_5 - 1000.000000 s_2_5  + 0.000000 s_2_1  + 0.000000 s_2_7  > -988.390439
t_2_6 - t_1_5 - 1000.000000 s_1_5  + 0.000000 s_1_1  + 0.000000 s_1_7  > -994.481311
t_2_6 - t_2_5 - 1000.000000 s_2_5  + 0.000000 s_2_1  + 0.000000 s_2_7  > -988.390439
t_1_5 - t_1_7 - 1000.000000 s_1_7  > -991.565556
t_1_5 - t_2_7 - 1000.000000 s_2_7  > -985.328426
t_2_5 - t_1_7 - 1000.000000 s_1_7  > -991.565556
t_2_5 - t_2_7 - 1000.000000 s_2_7  > -985.328426
Binary
s_1_1
s_2_1
s_1_2
s_2_2
s_1_3
s_2_3
s_1_4
s_2_4
s_1_5
s_2_5
s_1_6
s_2_6
s_1_7
s_2_7
u_1_1_2
r_1_1_2
u_2_1_2
r_2_1_2
u_1_1_3
r_1_1_3
u_2_1_3
r_2_1_3
u_1_2_3
r_1_2_3
u_2_2_3
r_2_2_3
u_1_2_5
r_1_2_5
u_2_2_5
r_2_2_5
u_1_3_4
r_1_3_4
u_2_3_4
r_2_3_4
u_1_3_5
r_1_3_5
u_2_3_5
r_2_3_5
u_1_4_5
r_1_4_5
u_2_4_5
r_2_4_5

End
